solving instance mcnd arcs c100_400_10_F_T_10 3 6 log
Couenne 0.5.8 -- an Open-Source solver for Mixed Integer Nonlinear Optimization
Mailing list: couenne@list.coin-or.org
Instructions: http://www.coin-or.org/Couenne
couenne: 
ANALYSIS TEST: Reformulating problem: 11.4 seconds
NLP0012I 
              Num      Status      Obj             It       time                 Location
NLP0014I             1         OPT 112266.02      149 188.2375
NLP0014I             2      INFEAS 13.288095      149 95.322055
Loaded instance "/tmp/jl_sETTF7/model.nl"
Constraints:         6800
Variables:           5400 (500 integer)
Auxiliaries:         2502 (0 integer)

Coin0506I Presolve 9000 (-537) rows, 5580 (-2322) columns and 35733 (-2931) elements
Clp0006I 0  Obj 13001.343 Primal inf 506.16456 (50) Dual inf 1.5136931e+12 (180)
Clp0006I 263  Obj 13488.238 Primal inf 208.66558 (28) Dual inf 1.3401359e+12 (327)
Clp0006I 518  Obj 14003.122 Primal inf 204.18467 (27) Dual inf 1.4708094e+12 (399)
Clp0006I 773  Obj 14003.122 Primal inf 204.18467 (27) Dual inf 4.063779e+12 (671)
Clp0006I 1028  Obj 15131.951 Primal inf 194.04555 (25) Dual inf 3.7444768e+12 (786)
Clp0006I 1283  Obj 16602.379 Primal inf 189.69512 (25) Dual inf 1.0252507e+13 (1215)
Clp0006I 1538  Obj 19550.745 Primal inf 179.13224 (23) Dual inf 1.5199758e+13 (1126)
Clp0006I 1793  Obj 26754.733 Primal inf 160.62574 (25) Dual inf 3.6840414e+13 (1289)
Clp0006I 2049  Obj 33812.024 Primal inf 136.18624 (24) Dual inf 1.4487367e+13 (1085)
Clp0006I 2304  Obj 33812.029 Primal inf 136.18623 (45) Dual inf 1.1277719e+14 (1274)
Clp0006I 2559  Obj 43615.904 Primal inf 111.94669 (46) Dual inf 1.4147088e+14 (1524)
Clp0006I 2814  Obj 43615.907 Primal inf 111.94667 (28) Dual inf 4.4020963e+13 (1382)
Clp0006I 3069  Obj 51410.281 Primal inf 87.908797 (50) Dual inf 5.2504616e+13 (1559)
Clp0006I 3324  Obj 54552.878 Primal inf 74.216018 (114) Dual inf 2.5535365e+14 (1592)
Clp0006I 3575  Obj 63808.819 Primal inf 49.250507 (20) Dual inf 3.0368336e+13 (1685)
Clp0006I 3830  Obj 68812.093 Primal inf 33.808683 (19) Dual inf 1.0216187e+13 (1545)
Clp0006I 4085  Obj 74815.041 Primal inf 18.111071 (11) Dual inf 6.2829872e+13 (1666)
Clp0006I 4318  Obj 75641.632 Primal inf 15.810264 (11) Dual inf 5.0112427e+13 (1661)
Clp0006I 4520  Obj 75641.64 Primal inf 15.810245 (7) Dual inf 5.0792764e+13 (1555)
Clp0006I 4718  Obj 81813.906 Primal inf 9.6918195 (38) Dual inf 4.4966535e+14 (1780)
Clp0006I 4925  Obj 82572.49 Primal inf 1.2417068e-05 (28) Dual inf 1.4839196e+14 (1733)
Clp0006I 5135  Obj 82572.486 Primal inf 2.2418064e-07 (6) Dual inf 9.9866455e+12 (1653)
Clp0006I 5319  Obj 82572.483 Dual inf 445120.76 (1315)
Clp0006I 5507  Obj 82204.845 Primal inf 1.2864361e-08 (1) Dual inf 2.9508739e+12 (1470)
Clp0006I 5715  Obj 81751.937 Dual inf 1645422.5 (1393)
Clp0006I 5902  Obj 79621.467 Primal inf 4.6582516e-06 (12) Dual inf 4.8292597e+13 (1492)
Clp0006I 6095  Obj 79621.457 Primal inf 2.5752377e-08 (1) Dual inf 3.6027352e+12 (1383)
Clp0006I 6309  Obj 79621.457 Primal inf 2.3609534e-05 (33) Dual inf 2.3533277e+14 (1472)
Clp0006I 6516  Obj 79621.448 Primal inf 1.5408311e-05 (27) Dual inf 1.1997003e+14 (1595)
Clp0006I 6718  Obj 79621.443 Dual inf 3213328.5 (1450)
Clp0006I 6904  Obj 79621.435 Dual inf 3890111.9 (1532)
Clp0006I 7087  Obj 79621.424 Primal inf 3.9669596e-06 (9) Dual inf 2.1622508e+13 (1637)
Clp0006I 7277  Obj 79621.416 Primal inf 3.630973e-06 (16) Dual inf 2.6724387e+13 (1524)
Clp0006I 7468  Obj 79621.392 Primal inf 2.064192e-06 (6) Dual inf 1.149182e+13 (1515)
Clp0006I 7679  Obj 79621.37 Primal inf 3.3473054e-06 (11) Dual inf 2.003779e+13 (1552)
Clp0006I 7881  Obj 79621.359 Primal inf 1.2437604e-07 (4) Dual inf 4.3611354e+12 (1527)
Clp0006I 8136  Obj 78783.554 Primal inf 2.4611693e-05 (41) Dual inf 9.4722912e+13 (1730)
Clp0006I 8391  Obj 76915.629 Primal inf 8.5866609e-07 (4) Dual inf 3.0190606e+12 (1598)
Clp0006I 8586  Obj 76731.721 Primal inf 1.2204931e-07 (2) Dual inf 2.1647902e+12 (1597)
Clp0006I 8779  Obj 76465.168 Primal inf 1.3082183e-07 (2) Dual inf 8.614689e+12 (1653)
Clp0006I 8968  Obj 75901.065 Primal inf 3.2411638e-06 (10) Dual inf 2.2276268e+13 (1378)
Clp0006I 9159  Obj 75901.061 Dual inf 298358.01 (1049)
Clp0006I 9348  Obj 75690.534 Dual inf 211920.83 (1097)
Clp0006I 9528  Obj 75595.414 Dual inf 149913.46 (1085)
Clp0006I 9710  Obj 75163.945 Primal inf 1.047445e-05 (36) Dual inf 1.4864969e+14 (1540)
Clp0006I 9901  Obj 75163.944 Dual inf 849845.66 (1412)
Clp0006I 10062  Obj 75163.943 Dual inf 1022830.4 (1368)
Clp0006I 10232  Obj 75070.734 Dual inf 756542.44 (1386)
Clp0006I 10397  Obj 75070.734 Dual inf 955845.41 (1325)
Clp0006I 10568  Obj 75007.035 Primal inf 3.3652959e-07 (3) Dual inf 5.1099274e+12 (1428)
Clp0006I 10742  Obj 74860.221 Dual inf 30506.163 (594)
Clp0006I 10926  Obj 74860.22 Dual inf 26347.777 (555)
Clp0006I 11095  Obj 74860.219 Dual inf 128551.35 (865)
Clp0006I 11271  Obj 74860.218 Primal inf 2.4525366e-08 (2) Dual inf 5.2821944e+12 (1302)
Clp0006I 11454  Obj 74757.73 Dual inf 98033.201 (815)
Clp0006I 11633  Obj 74696.804 Dual inf 129535.52 (935)
Clp0006I 11827  Obj 74690.962 Primal inf 4.167274e-06 (16) Dual inf 2.8813598e+13 (1458)
Clp0006I 12012  Obj 74668.215 Dual inf 32449.95 (575)
Clp0006I 12207  Obj 74667.84 Dual inf 5941.3097 (295)
Clp0006I 12312  Obj 74666.24
Clp0000I Optimal - objective value 74666.24
Clp0000I Optimal - objective value 74666.259
Clp0032I Optimal objective 74666.25948 - 12312 iterations time 9.872, Presolve 0.05
Clp0000I Optimal - objective value 74666.259
NLP Heuristic: time limit reached.
Clp0000I Optimal - objective value 74666.259
Optimality Based BT: 0 improved bounds
Probing: 0 improved bounds
NLP Heuristic: no solution.
Cbc0013I At root node, 0 cuts changed objective from 74666.259 to 74666.259 in 1 passes
Cbc0014I Cut generator 0 (Couenne convexifier cuts) - 0 row cuts average 0.0 elements, 0 column cuts (0 active)
Cbc0010I After 0 nodes, 1 on tree, 1e+50 best solution, best possible -1.7976931e+308 (871.71 seconds)
Optimality Based BT: 0 improved bounds
Optimality Based BT: 0 improved bounds
Optimality Based BT: 0 improved bounds
Cbc0020I Exiting on maximum time
Cbc0005I Partial search - best objective 1e+50 (best possible -1.7976931e+308), took 2542 iterations and 3 nodes (3239.06 seconds)
Cbc0035I Maximum depth 1, 0 variables fixed on reduced cost

 	"Not finished"

Linearization cuts added at root node:       9537
Linearization cuts added in total:           9537  (separation time: 0.188235s)
Total solve time:                         3248.93s (3248.93s in branch-and-bound)
Lower bound:                                 -inf
Upper bound:                                  inf  (gap: --)
Branch-and-bound nodes:                         3
Stats: /tmp/jl_sETTF7/model.nl 5400 [var]  500 [int] 6800 [con] 2502 [aux]   9537 [root]     9537 [tot] 0.188235 [sep]  3248.93 [time]  3248.95 [bb]       -1.797693e+308 [lower]         1.000000e+50 [upper]       3 [nodes]
Performance of                           FBBT:	    0.79685s,        8 runs. fix:        1.5 shrnk:    1.79893 ubd:          0 2ubd:         10 infeas:          0
Performance of                           OBBT:	    237.635s,        4 runs. fix:          0 shrnk:          0 ubd:          0 2ubd:         10 infeas:          0
ERROR: LoadError: MathOptInterface.GetAttributeNotAllowed{MathOptInterface.ObjectiveBound}: Getting attribute MathOptInterface.ObjectiveBound() cannot be performed: AmplNLWriter.Optimizer does not support getting the attribute MathOptInterface.ObjectiveBound(). You may want to use a `CachingOptimizer` in `AUTOMATIC` mode or you may need to call `reset_optimizer` before doing this operation if the `CachingOptimizer` is in `MANUAL` mode.
Stacktrace:
  [1] get_fallback(model::AmplNLWriter.Optimizer, attr::MathOptInterface.ObjectiveBound)
    @ MathOptInterface ~/.julia/packages/MathOptInterface/gLl4d/src/attributes.jl:409
  [2] get(::AmplNLWriter.Optimizer, ::MathOptInterface.ObjectiveBound)
    @ MathOptInterface ~/.julia/packages/MathOptInterface/gLl4d/src/attributes.jl:390
  [3] _get_model_attribute(model::MathOptInterface.Utilities.CachingOptimizer{AmplNLWriter.Optimizer, MathOptInterface.Utilities.UniversalFallback{MathOptInterface.Utilities.Model{Float64}}}, attr::MathOptInterface.ObjectiveBound)
    @ MathOptInterface.Utilities ~/.julia/packages/MathOptInterface/gLl4d/src/Utilities/cachingoptimizer.jl:865
  [4] get(model::MathOptInterface.Utilities.CachingOptimizer{AmplNLWriter.Optimizer, MathOptInterface.Utilities.UniversalFallback{MathOptInterface.Utilities.Model{Float64}}}, attr::MathOptInterface.ObjectiveBound)
    @ MathOptInterface.Utilities ~/.julia/packages/MathOptInterface/gLl4d/src/Utilities/cachingoptimizer.jl:900
  [5] get(b::MathOptInterface.Bridges.LazyBridgeOptimizer{MathOptInterface.Utilities.CachingOptimizer{AmplNLWriter.Optimizer, MathOptInterface.Utilities.UniversalFallback{MathOptInterface.Utilities.Model{Float64}}}}, attr::MathOptInterface.ObjectiveBound)
    @ MathOptInterface.Bridges ~/.julia/packages/MathOptInterface/gLl4d/src/Bridges/bridge_optimizer.jl:889
  [6] _get_model_attribute(model::MathOptInterface.Utilities.CachingOptimizer{MathOptInterface.Bridges.LazyBridgeOptimizer{MathOptInterface.Utilities.CachingOptimizer{AmplNLWriter.Optimizer, MathOptInterface.Utilities.UniversalFallback{MathOptInterface.Utilities.Model{Float64}}}}, MathOptInterface.Utilities.UniversalFallback{MathOptInterface.Utilities.Model{Float64}}}, attr::MathOptInterface.ObjectiveBound)
    @ MathOptInterface.Utilities ~/.julia/packages/MathOptInterface/gLl4d/src/Utilities/cachingoptimizer.jl:865
  [7] get(model::MathOptInterface.Utilities.CachingOptimizer{MathOptInterface.Bridges.LazyBridgeOptimizer{MathOptInterface.Utilities.CachingOptimizer{AmplNLWriter.Optimizer, MathOptInterface.Utilities.UniversalFallback{MathOptInterface.Utilities.Model{Float64}}}}, MathOptInterface.Utilities.UniversalFallback{MathOptInterface.Utilities.Model{Float64}}}, attr::MathOptInterface.ObjectiveBound)
    @ MathOptInterface.Utilities ~/.julia/packages/MathOptInterface/gLl4d/src/Utilities/cachingoptimizer.jl:900
  [8] _moi_get_result(model::MathOptInterface.Utilities.CachingOptimizer{MathOptInterface.Bridges.LazyBridgeOptimizer{MathOptInterface.Utilities.CachingOptimizer{AmplNLWriter.Optimizer, MathOptInterface.Utilities.UniversalFallback{MathOptInterface.Utilities.Model{Float64}}}}, MathOptInterface.Utilities.UniversalFallback{MathOptInterface.Utilities.Model{Float64}}}, args::MathOptInterface.ObjectiveBound)
    @ JuMP ~/.julia/packages/JuMP/i68GU/src/optimizer_interface.jl:1053
  [9] get(model::JuMP.Model, attr::MathOptInterface.ObjectiveBound)
    @ JuMP ~/.julia/packages/JuMP/i68GU/src/optimizer_interface.jl:1073
 [10] objective_bound(model::JuMP.Model)
    @ JuMP ~/.julia/packages/JuMP/i68GU/src/objective.jl:78
 [11] nl_mcnd(ptype::String, graph::String, commodities::String, nodes::String, incr::Int64, cost::Symbol, solver::AmplNLWriter.Optimizer, solver_params::Vector{Any}; solve::Bool, write_nl::Bool)
    @ IterativePWLB ~/git/ipwlb/code/sources/IterativePWLB/src/nlsolver.jl:1192
 [12] top-level scope
    @ ~/git/ipwlb/code/sources/IterativePWLB/test/couenne/mcnd_arcs/script.jl:18
in expression starting at /home/ccontard/git/ipwlb/code/sources/IterativePWLB/test/couenne/mcnd_arcs/script.jl:18
